unknown
(model
; cardinality of BoundSet is 4
(declare-sort BoundSet 0)
; rep: @uc_BoundSet_0
; rep: @uc_BoundSet_1
; rep: @uc_BoundSet_2
; rep: @uc_BoundSet_3
; cardinality of UnboundSet is 1
(declare-sort UnboundSet 0)
(declare-fun groundTerm_5 () UnboundSet)
(define-fun IsRiding ((BOUND_VARIABLE_443 BoundSet) (BOUND_VARIABLE_444 BoundSet)) Bool true)
(define-fun IsWith ((BOUND_VARIABLE_443 BoundSet) (BOUND_VARIABLE_444 BoundSet)) Bool true)
(define-fun AreTwo ((BOUND_VARIABLE_453 BoundSet)) Bool false)
)
sat
(model
; cardinality of BoundSet is 1
(declare-sort BoundSet 0)
; rep: @uc_BoundSet_0
; cardinality of UnboundSet is 1
(declare-sort UnboundSet 0)
(declare-fun groundTerm_9 () UnboundSet)
(define-fun IsRiding ((BOUND_VARIABLE_495 BoundSet) (BOUND_VARIABLE_496 BoundSet)) Bool true)
(define-fun IsWith ((BOUND_VARIABLE_495 BoundSet) (BOUND_VARIABLE_496 BoundSet)) Bool true)
(define-fun AreTwo ((BOUND_VARIABLE_502 BoundSet)) Bool false)
)
